p cnf 56 1238
-1 -2 -3 -4 -5 0
-1 -2 -3 -4 -6 0
-1 -2 -3 -4 -7 0
-1 -2 -3 -5 -6 0
-1 -2 -3 -5 -7 0
-1 -2 -3 -6 -7 0
-1 -2 -4 -5 -6 0
-1 -2 -4 -5 -7 0
-1 -2 -4 -6 -7 0
-1 -2 -5 -6 -7 0
-1 -3 -4 -5 -6 0
-1 -3 -4 -5 -7 0
-1 -3 -4 -6 -7 0
-1 -3 -5 -6 -7 0
-1 -4 -5 -6 -7 0
-2 -3 -4 -5 -6 0
-2 -3 -4 -5 -7 0
-2 -3 -4 -6 -7 0
-2 -3 -5 -6 -7 0
-2 -4 -5 -6 -7 0
-3 -4 -5 -6 -7 0
1 2 3 4 0
1 2 3 5 0
1 2 3 6 0
1 2 3 7 0
1 2 4 5 0
1 2 4 6 0
1 2 4 7 0
1 2 5 6 0
1 2 5 7 0
1 2 6 7 0
1 3 4 5 0
1 3 4 6 0
1 3 4 7 0
1 3 5 6 0
1 3 5 7 0
1 3 6 7 0
1 4 5 6 0
1 4 5 7 0
1 4 6 7 0
1 5 6 7 0
2 3 4 5 0
2 3 4 6 0
2 3 4 7 0
2 3 5 6 0
2 3 5 7 0
2 3 6 7 0
2 4 5 6 0
2 4 5 7 0
2 4 6 7 0
2 5 6 7 0
3 4 5 6 0
3 4 5 7 0
3 4 6 7 0
3 5 6 7 0
4 5 6 7 0
-8 -9 -10 -11 -12 0
-8 -9 -10 -11 -13 0
-8 -9 -10 -11 -14 0
-8 -9 -10 -12 -13 0
-8 -9 -10 -12 -14 0
-8 -9 -10 -13 -14 0
-8 -9 -11 -12 -13 0
-8 -9 -11 -12 -14 0
-8 -9 -11 -13 -14 0
-8 -9 -12 -13 -14 0
-8 -10 -11 -12 -13 0
-8 -10 -11 -12 -14 0
-8 -10 -11 -13 -14 0
-8 -10 -12 -13 -14 0
-8 -11 -12 -13 -14 0
-9 -10 -11 -12 -13 0
-9 -10 -11 -12 -14 0
-9 -10 -11 -13 -14 0
-9 -10 -12 -13 -14 0
-9 -11 -12 -13 -14 0
-10 -11 -12 -13 -14 0
8 9 10 11 0
8 9 10 12 0
8 9 10 13 0
8 9 10 14 0
8 9 11 12 0
8 9 11 13 0
8 9 11 14 0
8 9 12 13 0
8 9 12 14 0
8 9 13 14 0
8 10 11 12 0
8 10 11 13 0
8 10 11 14 0
8 10 12 13 0
8 10 12 14 0
8 10 13 14 0
8 11 12 13 0
8 11 12 14 0
8 11 13 14 0
8 12 13 14 0
9 10 11 12 0
9 10 11 13 0
9 10 11 14 0
9 10 12 13 0
9 10 12 14 0
9 10 13 14 0
9 11 12 13 0
9 11 12 14 0
9 11 13 14 0
9 12 13 14 0
10 11 12 13 0
10 11 12 14 0
10 11 13 14 0
10 12 13 14 0
11 12 13 14 0
-15 -16 -17 -18 -19 0
-15 -16 -17 -18 -20 0
-15 -16 -17 -18 -21 0
-15 -16 -17 -19 -20 0
-15 -16 -17 -19 -21 0
-15 -16 -17 -20 -21 0
-15 -16 -18 -19 -20 0
-15 -16 -18 -19 -21 0
-15 -16 -18 -20 -21 0
-15 -16 -19 -20 -21 0
-15 -17 -18 -19 -20 0
-15 -17 -18 -19 -21 0
-15 -17 -18 -20 -21 0
-15 -17 -19 -20 -21 0
-15 -18 -19 -20 -21 0
-16 -17 -18 -19 -20 0
-16 -17 -18 -19 -21 0
-16 -17 -18 -20 -21 0
-16 -17 -19 -20 -21 0
-16 -18 -19 -20 -21 0
-17 -18 -19 -20 -21 0
15 16 17 18 0
15 16 17 19 0
15 16 17 20 0
15 16 17 21 0
15 16 18 19 0
15 16 18 20 0
15 16 18 21 0
15 16 19 20 0
15 16 19 21 0
15 16 20 21 0
15 17 18 19 0
15 17 18 20 0
15 17 18 21 0
15 17 19 20 0
15 17 19 21 0
15 17 20 21 0
15 18 19 20 0
15 18 19 21 0
15 18 20 21 0
15 19 20 21 0
16 17 18 19 0
16 17 18 20 0
16 17 18 21 0
16 17 19 20 0
16 17 19 21 0
16 17 20 21 0
16 18 19 20 0
16 18 19 21 0
16 18 20 21 0
16 19 20 21 0
17 18 19 20 0
17 18 19 21 0
17 18 20 21 0
17 19 20 21 0
18 19 20 21 0
-22 -23 -24 -25 -26 0
-22 -23 -24 -25 -27 0
-22 -23 -24 -25 -28 0
-22 -23 -24 -26 -27 0
-22 -23 -24 -26 -28 0
-22 -23 -24 -27 -28 0
-22 -23 -25 -26 -27 0
-22 -23 -25 -26 -28 0
-22 -23 -25 -27 -28 0
-22 -23 -26 -27 -28 0
-22 -24 -25 -26 -27 0
-22 -24 -25 -26 -28 0
-22 -24 -25 -27 -28 0
-22 -24 -26 -27 -28 0
-22 -25 -26 -27 -28 0
-23 -24 -25 -26 -27 0
-23 -24 -25 -26 -28 0
-23 -24 -25 -27 -28 0
-23 -24 -26 -27 -28 0
-23 -25 -26 -27 -28 0
-24 -25 -26 -27 -28 0
22 23 24 25 0
22 23 24 26 0
22 23 24 27 0
22 23 24 28 0
22 23 25 26 0
22 23 25 27 0
22 23 25 28 0
22 23 26 27 0
22 23 26 28 0
22 23 27 28 0
22 24 25 26 0
22 24 25 27 0
22 24 25 28 0
22 24 26 27 0
22 24 26 28 0
22 24 27 28 0
22 25 26 27 0
22 25 26 28 0
22 25 27 28 0
22 26 27 28 0
23 24 25 26 0
23 24 25 27 0
23 24 25 28 0
23 24 26 27 0
23 24 26 28 0
23 24 27 28 0
23 25 26 27 0
23 25 26 28 0
23 25 27 28 0
23 26 27 28 0
24 25 26 27 0
24 25 26 28 0
24 25 27 28 0
24 26 27 28 0
25 26 27 28 0
-29 -30 -31 -32 -33 0
-29 -30 -31 -32 -34 0
-29 -30 -31 -32 -35 0
-29 -30 -31 -33 -34 0
-29 -30 -31 -33 -35 0
-29 -30 -31 -34 -35 0
-29 -30 -32 -33 -34 0
-29 -30 -32 -33 -35 0
-29 -30 -32 -34 -35 0
-29 -30 -33 -34 -35 0
-29 -31 -32 -33 -34 0
-29 -31 -32 -33 -35 0
-29 -31 -32 -34 -35 0
-29 -31 -33 -34 -35 0
-29 -32 -33 -34 -35 0
-30 -31 -32 -33 -34 0
-30 -31 -32 -33 -35 0
-30 -31 -32 -34 -35 0
-30 -31 -33 -34 -35 0
-30 -32 -33 -34 -35 0
-31 -32 -33 -34 -35 0
29 30 31 32 0
29 30 31 33 0
29 30 31 34 0
29 30 31 35 0
29 30 32 33 0
29 30 32 34 0
29 30 32 35 0
29 30 33 34 0
29 30 33 35 0
29 30 34 35 0
29 31 32 33 0
29 31 32 34 0
29 31 32 35 0
29 31 33 34 0
29 31 33 35 0
29 31 34 35 0
29 32 33 34 0
29 32 33 35 0
29 32 34 35 0
29 33 34 35 0
30 31 32 33 0
30 31 32 34 0
30 31 32 35 0
30 31 33 34 0
30 31 33 35 0
30 31 34 35 0
30 32 33 34 0
30 32 33 35 0
30 32 34 35 0
30 33 34 35 0
31 32 33 34 0
31 32 33 35 0
31 32 34 35 0
31 33 34 35 0
32 33 34 35 0
-36 -37 -38 -39 -40 0
-36 -37 -38 -39 -41 0
-36 -37 -38 -39 -42 0
-36 -37 -38 -40 -41 0
-36 -37 -38 -40 -42 0
-36 -37 -38 -41 -42 0
-36 -37 -39 -40 -41 0
-36 -37 -39 -40 -42 0
-36 -37 -39 -41 -42 0
-36 -37 -40 -41 -42 0
-36 -38 -39 -40 -41 0
-36 -38 -39 -40 -42 0
-36 -38 -39 -41 -42 0
-36 -38 -40 -41 -42 0
-36 -39 -40 -41 -42 0
-37 -38 -39 -40 -41 0
-37 -38 -39 -40 -42 0
-37 -38 -39 -41 -42 0
-37 -38 -40 -41 -42 0
-37 -39 -40 -41 -42 0
-38 -39 -40 -41 -42 0
36 37 38 39 0
36 37 38 40 0
36 37 38 41 0
36 37 38 42 0
36 37 39 40 0
36 37 39 41 0
36 37 39 42 0
36 37 40 41 0
36 37 40 42 0
36 37 41 42 0
36 38 39 40 0
36 38 39 41 0
36 38 39 42 0
36 38 40 41 0
36 38 40 42 0
36 38 41 42 0
36 39 40 41 0
36 39 40 42 0
36 39 41 42 0
36 40 41 42 0
37 38 39 40 0
37 38 39 41 0
37 38 39 42 0
37 38 40 41 0
37 38 40 42 0
37 38 41 42 0
37 39 40 41 0
37 39 40 42 0
37 39 41 42 0
37 40 41 42 0
38 39 40 41 0
38 39 40 42 0
38 39 41 42 0
38 40 41 42 0
39 40 41 42 0
-43 -44 -45 -46 -47 0
-43 -44 -45 -46 -48 0
-43 -44 -45 -46 -49 0
-43 -44 -45 -47 -48 0
-43 -44 -45 -47 -49 0
-43 -44 -45 -48 -49 0
-43 -44 -46 -47 -48 0
-43 -44 -46 -47 -49 0
-43 -44 -46 -48 -49 0
-43 -44 -47 -48 -49 0
-43 -45 -46 -47 -48 0
-43 -45 -46 -47 -49 0
-43 -45 -46 -48 -49 0
-43 -45 -47 -48 -49 0
-43 -46 -47 -48 -49 0
-44 -45 -46 -47 -48 0
-44 -45 -46 -47 -49 0
-44 -45 -46 -48 -49 0
-44 -45 -47 -48 -49 0
-44 -46 -47 -48 -49 0
-45 -46 -47 -48 -49 0
43 44 45 46 0
43 44 45 47 0
43 44 45 48 0
43 44 45 49 0
43 44 46 47 0
43 44 46 48 0
43 44 46 49 0
43 44 47 48 0
43 44 47 49 0
43 44 48 49 0
43 45 46 47 0
43 45 46 48 0
43 45 46 49 0
43 45 47 48 0
43 45 47 49 0
43 45 48 49 0
43 46 47 48 0
43 46 47 49 0
43 46 48 49 0
43 47 48 49 0
44 45 46 47 0
44 45 46 48 0
44 45 46 49 0
44 45 47 48 0
44 45 47 49 0
44 45 48 49 0
44 46 47 48 0
44 46 47 49 0
44 46 48 49 0
44 47 48 49 0
45 46 47 48 0
45 46 47 49 0
45 46 48 49 0
45 47 48 49 0
46 47 48 49 0
-50 -51 -52 -53 -54 0
-50 -51 -52 -53 -55 0
-50 -51 -52 -53 -56 0
-50 -51 -52 -54 -55 0
-50 -51 -52 -54 -56 0
-50 -51 -52 -55 -56 0
-50 -51 -53 -54 -55 0
-50 -51 -53 -54 -56 0
-50 -51 -53 -55 -56 0
-50 -51 -54 -55 -56 0
-50 -52 -53 -54 -55 0
-50 -52 -53 -54 -56 0
-50 -52 -53 -55 -56 0
-50 -52 -54 -55 -56 0
-50 -53 -54 -55 -56 0
-51 -52 -53 -54 -55 0
-51 -52 -53 -54 -56 0
-51 -52 -53 -55 -56 0
-51 -52 -54 -55 -56 0
-51 -53 -54 -55 -56 0
-52 -53 -54 -55 -56 0
50 51 52 53 0
50 51 52 54 0
50 51 52 55 0
50 51 52 56 0
50 51 53 54 0
50 51 53 55 0
50 51 53 56 0
50 51 54 55 0
50 51 54 56 0
50 51 55 56 0
50 52 53 54 0
50 52 53 55 0
50 52 53 56 0
50 52 54 55 0
50 52 54 56 0
50 52 55 56 0
50 53 54 55 0
50 53 54 56 0
50 53 55 56 0
50 54 55 56 0
51 52 53 54 0
51 52 53 55 0
51 52 53 56 0
51 52 54 55 0
51 52 54 56 0
51 52 55 56 0
51 53 54 55 0
51 53 54 56 0
51 53 55 56 0
51 54 55 56 0
52 53 54 55 0
52 53 54 56 0
52 53 55 56 0
52 54 55 56 0
53 54 55 56 0
-2 -3 -9 -10 0
-1 -2 -23 -24 0
-8 -10 -15 -17 0
-15 -16 -22 -23 0
-2 -4 -9 -11 0
-1 -2 -30 -31 0
-8 -11 -15 -18 0
-15 -16 -29 -30 0
-2 -5 -9 -12 0
-1 -2 -37 -38 0
-8 -12 -15 -19 0
-15 -16 -36 -37 0
-2 -6 -9 -13 0
-1 -2 -44 -45 0
-8 -13 -15 -20 0
-15 -16 -43 -44 0
-2 -7 -9 -14 0
-1 -2 -51 -52 0
-8 -14 -15 -21 0
-15 -16 -50 -51 0
-3 -4 -10 -11 0
-1 -3 -30 -32 0
-8 -11 -22 -25 0
-22 -23 -29 -30 0
-3 -5 -10 -12 0
-1 -3 -37 -39 0
-8 -12 -22 -26 0
-22 -23 -36 -37 0
-3 -6 -10 -13 0
-1 -3 -44 -46 0
-8 -13 -22 -27 0
-22 -23 -43 -44 0
-3 -7 -10 -14 0
-1 -3 -51 -53 0
-8 -14 -22 -28 0
-22 -23 -50 -51 0
-4 -5 -11 -12 0
-1 -4 -37 -40 0
-8 -12 -29 -33 0
-29 -30 -36 -37 0
-4 -6 -11 -13 0
-1 -4 -44 -47 0
-8 -13 -29 -34 0
-29 -30 -43 -44 0
-4 -7 -11 -14 0
-1 -4 -51 -54 0
-8 -14 -29 -35 0
-29 -30 -50 -51 0
-5 -6 -12 -13 0
-1 -5 -44 -48 0
-8 -13 -36 -41 0
-36 -37 -43 -44 0
-5 -7 -12 -14 0
-1 -5 -51 -55 0
-8 -14 -36 -42 0
-36 -37 -50 -51 0
-6 -7 -13 -14 0
-1 -6 -51 -56 0
-8 -14 -43 -49 0
-43 -44 -50 -51 0
-3 -4 -17 -18 0
-2 -3 -31 -32 0
-15 -18 -22 -25 0
-22 -24 -29 -31 0
-3 -5 -17 -19 0
-2 -3 -38 -39 0
-15 -19 -22 -26 0
-22 -24 -36 -38 0
-3 -6 -17 -20 0
-2 -3 -45 -46 0
-15 -20 -22 -27 0
-22 -24 -43 -45 0
-3 -7 -17 -21 0
-2 -3 -52 -53 0
-15 -21 -22 -28 0
-22 -24 -50 -52 0
-4 -5 -18 -19 0
-2 -4 -38 -40 0
-15 -19 -29 -33 0
-29 -31 -36 -38 0
-4 -6 -18 -20 0
-2 -4 -45 -47 0
-15 -20 -29 -34 0
-29 -31 -43 -45 0
-4 -7 -18 -21 0
-2 -4 -52 -54 0
-15 -21 -29 -35 0
-29 -31 -50 -52 0
-5 -6 -19 -20 0
-2 -5 -45 -48 0
-15 -20 -36 -41 0
-36 -38 -43 -45 0
-5 -7 -19 -21 0
-2 -5 -52 -55 0
-15 -21 -36 -42 0
-36 -38 -50 -52 0
-6 -7 -20 -21 0
-2 -6 -52 -56 0
-15 -21 -43 -49 0
-43 -45 -50 -52 0
-4 -5 -25 -26 0
-3 -4 -39 -40 0
-22 -26 -29 -33 0
-29 -32 -36 -39 0
-4 -6 -25 -27 0
-3 -4 -46 -47 0
-22 -27 -29 -34 0
-29 -32 -43 -46 0
-4 -7 -25 -28 0
-3 -4 -53 -54 0
-22 -28 -29 -35 0
-29 -32 -50 -53 0
-5 -6 -26 -27 0
-3 -5 -46 -48 0
-22 -27 -36 -41 0
-36 -39 -43 -46 0
-5 -7 -26 -28 0
-3 -5 -53 -55 0
-22 -28 -36 -42 0
-36 -39 -50 -53 0
-6 -7 -27 -28 0
-3 -6 -53 -56 0
-22 -28 -43 -49 0
-43 -46 -50 -53 0
-5 -6 -33 -34 0
-4 -5 -47 -48 0
-29 -34 -36 -41 0
-36 -40 -43 -47 0
-5 -7 -33 -35 0
-4 -5 -54 -55 0
-29 -35 -36 -42 0
-36 -40 -50 -54 0
-6 -7 -34 -35 0
-4 -6 -54 -56 0
-29 -35 -43 -49 0
-43 -47 -50 -54 0
-6 -7 -41 -42 0
-5 -6 -55 -56 0
-36 -42 -43 -49 0
-43 -48 -50 -55 0
-10 -11 -17 -18 0
-9 -10 -31 -32 0
-16 -18 -23 -25 0
-23 -24 -30 -31 0
-10 -12 -17 -19 0
-9 -10 -38 -39 0
-16 -19 -23 -26 0
-23 -24 -37 -38 0
-10 -13 -17 -20 0
-9 -10 -45 -46 0
-16 -20 -23 -27 0
-23 -24 -44 -45 0
-10 -14 -17 -21 0
-9 -10 -52 -53 0
-16 -21 -23 -28 0
-23 -24 -51 -52 0
-11 -12 -18 -19 0
-9 -11 -38 -40 0
-16 -19 -30 -33 0
-30 -31 -37 -38 0
-11 -13 -18 -20 0
-9 -11 -45 -47 0
-16 -20 -30 -34 0
-30 -31 -44 -45 0
-11 -14 -18 -21 0
-9 -11 -52 -54 0
-16 -21 -30 -35 0
-30 -31 -51 -52 0
-12 -13 -19 -20 0
-9 -12 -45 -48 0
-16 -20 -37 -41 0
-37 -38 -44 -45 0
-12 -14 -19 -21 0
-9 -12 -52 -55 0
-16 -21 -37 -42 0
-37 -38 -51 -52 0
-13 -14 -20 -21 0
-9 -13 -52 -56 0
-16 -21 -44 -49 0
-44 -45 -51 -52 0
-11 -12 -25 -26 0
-10 -11 -39 -40 0
-23 -26 -30 -33 0
-30 -32 -37 -39 0
-11 -13 -25 -27 0
-10 -11 -46 -47 0
-23 -27 -30 -34 0
-30 -32 -44 -46 0
-11 -14 -25 -28 0
-10 -11 -53 -54 0
-23 -28 -30 -35 0
-30 -32 -51 -53 0
-12 -13 -26 -27 0
-10 -12 -46 -48 0
-23 -27 -37 -41 0
-37 -39 -44 -46 0
-12 -14 -26 -28 0
-10 -12 -53 -55 0
-23 -28 -37 -42 0
-37 -39 -51 -53 0
-13 -14 -27 -28 0
-10 -13 -53 -56 0
-23 -28 -44 -49 0
-44 -46 -51 -53 0
-12 -13 -33 -34 0
-11 -12 -47 -48 0
-30 -34 -37 -41 0
-37 -40 -44 -47 0
-12 -14 -33 -35 0
-11 -12 -54 -55 0
-30 -35 -37 -42 0
-37 -40 -51 -54 0
-13 -14 -34 -35 0
-11 -13 -54 -56 0
-30 -35 -44 -49 0
-44 -47 -51 -54 0
-13 -14 -41 -42 0
-12 -13 -55 -56 0
-37 -42 -44 -49 0
-44 -48 -51 -55 0
-18 -19 -25 -26 0
-17 -18 -39 -40 0
-24 -26 -31 -33 0
-31 -32 -38 -39 0
-18 -20 -25 -27 0
-17 -18 -46 -47 0
-24 -27 -31 -34 0
-31 -32 -45 -46 0
-18 -21 -25 -28 0
-17 -18 -53 -54 0
-24 -28 -31 -35 0
-31 -32 -52 -53 0
-19 -20 -26 -27 0
-17 -19 -46 -48 0
-24 -27 -38 -41 0
-38 -39 -45 -46 0
-19 -21 -26 -28 0
-17 -19 -53 -55 0
-24 -28 -38 -42 0
-38 -39 -52 -53 0
-20 -21 -27 -28 0
-17 -20 -53 -56 0
-24 -28 -45 -49 0
-45 -46 -52 -53 0
-19 -20 -33 -34 0
-18 -19 -47 -48 0
-31 -34 -38 -41 0
-38 -40 -45 -47 0
-19 -21 -33 -35 0
-18 -19 -54 -55 0
-31 -35 -38 -42 0
-38 -40 -52 -54 0
-20 -21 -34 -35 0
-18 -20 -54 -56 0
-31 -35 -45 -49 0
-45 -47 -52 -54 0
-20 -21 -41 -42 0
-19 -20 -55 -56 0
-38 -42 -45 -49 0
-45 -48 -52 -55 0
-26 -27 -33 -34 0
-25 -26 -47 -48 0
-32 -34 -39 -41 0
-39 -40 -46 -47 0
-26 -28 -33 -35 0
-25 -26 -54 -55 0
-32 -35 -39 -42 0
-39 -40 -53 -54 0
-27 -28 -34 -35 0
-25 -27 -54 -56 0
-32 -35 -46 -49 0
-46 -47 -53 -54 0
-27 -28 -41 -42 0
-26 -27 -55 -56 0
-39 -42 -46 -49 0
-46 -48 -53 -55 0
-34 -35 -41 -42 0
-33 -34 -55 -56 0
-40 -42 -47 -49 0
-47 -48 -54 -55 0
1 2 3 4 5 6 7 0
8 15 22 29 36 43 50 0
2 3 4 5 6 7 9 10 11 12 13 14 0
15 16 22 23 29 30 36 37 43 44 50 51 0
1 3 4 5 6 7 16 17 18 19 20 21 0
8 9 22 24 29 31 36 38 43 45 50 52 0
1 2 4 5 6 7 23 24 25 26 27 28 0
8 10 15 17 29 32 36 39 43 46 50 53 0
1 2 3 5 6 7 30 31 32 33 34 35 0
8 11 15 18 22 25 36 40 43 47 50 54 0
1 2 3 4 6 7 37 38 39 40 41 42 0
8 12 15 19 22 26 29 33 43 48 50 55 0
1 2 3 4 5 7 44 45 46 47 48 49 0
8 13 15 20 22 27 29 34 36 41 50 56 0
1 2 3 4 5 6 51 52 53 54 55 56 0
8 14 15 21 22 28 29 35 36 42 43 49 0
3 4 5 6 7 10 11 12 13 14 17 18 19 20 21 0
22 23 24 29 30 31 36 37 38 43 44 45 50 51 52 0
2 4 5 6 7 9 11 12 13 14 24 25 26 27 28 0
15 16 17 29 30 32 36 37 39 43 44 46 50 51 53 0
2 3 5 6 7 9 10 12 13 14 31 32 33 34 35 0
15 16 18 22 23 25 36 37 40 43 44 47 50 51 54 0
2 3 4 6 7 9 10 11 13 14 38 39 40 41 42 0
15 16 19 22 23 26 29 30 33 43 44 48 50 51 55 0
2 3 4 5 7 9 10 11 12 14 45 46 47 48 49 0
15 16 20 22 23 27 29 30 34 36 37 41 50 51 56 0
2 3 4 5 6 9 10 11 12 13 52 53 54 55 56 0
15 16 21 22 23 28 29 30 35 36 37 42 43 44 49 0
1 4 5 6 7 16 18 19 20 21 23 25 26 27 28 0
8 9 10 29 31 32 36 38 39 43 45 46 50 52 53 0
1 3 5 6 7 16 17 19 20 21 30 32 33 34 35 0
8 9 11 22 24 25 36 38 40 43 45 47 50 52 54 0
1 3 4 6 7 16 17 18 20 21 37 39 40 41 42 0
8 9 12 22 24 26 29 31 33 43 45 48 50 52 55 0
1 3 4 5 7 16 17 18 19 21 44 46 47 48 49 0
8 9 13 22 24 27 29 31 34 36 38 41 50 52 56 0
1 3 4 5 6 16 17 18 19 20 51 53 54 55 56 0
8 9 14 22 24 28 29 31 35 36 38 42 43 45 49 0
1 2 5 6 7 23 24 26 27 28 30 31 33 34 35 0
8 10 11 15 17 18 36 39 40 43 46 47 50 53 54 0
1 2 4 6 7 23 24 25 27 28 37 38 40 41 42 0
8 10 12 15 17 19 29 32 33 43 46 48 50 53 55 0
1 2 4 5 7 23 24 25 26 28 44 45 47 48 49 0
8 10 13 15 17 20 29 32 34 36 39 41 50 53 56 0
1 2 4 5 6 23 24 25 26 27 51 52 54 55 56 0
8 10 14 15 17 21 29 32 35 36 39 42 43 46 49 0
1 2 3 6 7 30 31 32 34 35 37 38 39 41 42 0
8 11 12 15 18 19 22 25 26 43 47 48 50 54 55 0
1 2 3 5 7 30 31 32 33 35 44 45 46 48 49 0
8 11 13 15 18 20 22 25 27 36 40 41 50 54 56 0
1 2 3 5 6 30 31 32 33 34 51 52 53 55 56 0
8 11 14 15 18 21 22 25 28 36 40 42 43 47 49 0
1 2 3 4 7 37 38 39 40 42 44 45 46 47 49 0
8 12 13 15 19 20 22 26 27 29 33 34 50 55 56 0
1 2 3 4 6 37 38 39 40 41 51 52 53 54 56 0
8 12 14 15 19 21 22 26 28 29 33 35 43 48 49 0
1 2 3 4 5 44 45 46 47 48 51 52 53 54 55 0
8 13 14 15 20 21 22 27 28 29 34 35 36 41 42 0
4 5 6 7 11 12 13 14 18 19 20 21 25 26 27 28 0
29 30 31 32 36 37 38 39 43 44 45 46 50 51 52 53 0
3 5 6 7 10 12 13 14 17 19 20 21 32 33 34 35 0
22 23 24 25 36 37 38 40 43 44 45 47 50 51 52 54 0
3 4 6 7 10 11 13 14 17 18 20 21 39 40 41 42 0
22 23 24 26 29 30 31 33 43 44 45 48 50 51 52 55 0
3 4 5 7 10 11 12 14 17 18 19 21 46 47 48 49 0
22 23 24 27 29 30 31 34 36 37 38 41 50 51 52 56 0
3 4 5 6 10 11 12 13 17 18 19 20 53 54 55 56 0
22 23 24 28 29 30 31 35 36 37 38 42 43 44 45 49 0
2 5 6 7 9 12 13 14 24 26 27 28 31 33 34 35 0
15 16 17 18 36 37 39 40 43 44 46 47 50 51 53 54 0
2 4 6 7 9 11 13 14 24 25 27 28 38 40 41 42 0
15 16 17 19 29 30 32 33 43 44 46 48 50 51 53 55 0
2 4 5 7 9 11 12 14 24 25 26 28 45 47 48 49 0
15 16 17 20 29 30 32 34 36 37 39 41 50 51 53 56 0
2 4 5 6 9 11 12 13 24 25 26 27 52 54 55 56 0
15 16 17 21 29 30 32 35 36 37 39 42 43 44 46 49 0
2 3 6 7 9 10 13 14 31 32 34 35 38 39 41 42 0
15 16 18 19 22 23 25 26 43 44 47 48 50 51 54 55 0
2 3 5 7 9 10 12 14 31 32 33 35 45 46 48 49 0
15 16 18 20 22 23 25 27 36 37 40 41 50 51 54 56 0
2 3 5 6 9 10 12 13 31 32 33 34 52 53 55 56 0
15 16 18 21 22 23 25 28 36 37 40 42 43 44 47 49 0
2 3 4 7 9 10 11 14 38 39 40 42 45 46 47 49 0
15 16 19 20 22 23 26 27 29 30 33 34 50 51 55 56 0
2 3 4 6 9 10 11 13 38 39 40 41 52 53 54 56 0
15 16 19 21 22 23 26 28 29 30 33 35 43 44 48 49 0
2 3 4 5 9 10 11 12 45 46 47 48 52 53 54 55 0
15 16 20 21 22 23 27 28 29 30 34 35 36 37 41 42 0
1 5 6 7 16 19 20 21 23 26 27 28 30 33 34 35 0
8 9 10 11 36 38 39 40 43 45 46 47 50 52 53 54 0
1 4 6 7 16 18 20 21 23 25 27 28 37 40 41 42 0
8 9 10 12 29 31 32 33 43 45 46 48 50 52 53 55 0
1 4 5 7 16 18 19 21 23 25 26 28 44 47 48 49 0
8 9 10 13 29 31 32 34 36 38 39 41 50 52 53 56 0
1 4 5 6 16 18 19 20 23 25 26 27 51 54 55 56 0
8 9 10 14 29 31 32 35 36 38 39 42 43 45 46 49 0
1 3 6 7 16 17 20 21 30 32 34 35 37 39 41 42 0
8 9 11 12 22 24 25 26 43 45 47 48 50 52 54 55 0
1 3 5 7 16 17 19 21 30 32 33 35 44 46 48 49 0
8 9 11 13 22 24 25 27 36 38 40 41 50 52 54 56 0
1 3 5 6 16 17 19 20 30 32 33 34 51 53 55 56 0
8 9 11 14 22 24 25 28 36 38 40 42 43 45 47 49 0
1 3 4 7 16 17 18 21 37 39 40 42 44 46 47 49 0
8 9 12 13 22 24 26 27 29 31 33 34 50 52 55 56 0
1 3 4 6 16 17 18 20 37 39 40 41 51 53 54 56 0
8 9 12 14 22 24 26 28 29 31 33 35 43 45 48 49 0
1 3 4 5 16 17 18 19 44 46 47 48 51 53 54 55 0
8 9 13 14 22 24 27 28 29 31 34 35 36 38 41 42 0
1 2 6 7 23 24 27 28 30 31 34 35 37 38 41 42 0
8 10 11 12 15 17 18 19 43 46 47 48 50 53 54 55 0
1 2 5 7 23 24 26 28 30 31 33 35 44 45 48 49 0
8 10 11 13 15 17 18 20 36 39 40 41 50 53 54 56 0
1 2 5 6 23 24 26 27 30 31 33 34 51 52 55 56 0
8 10 11 14 15 17 18 21 36 39 40 42 43 46 47 49 0
1 2 4 7 23 24 25 28 37 38 40 42 44 45 47 49 0
8 10 12 13 15 17 19 20 29 32 33 34 50 53 55 56 0
1 2 4 6 23 24 25 27 37 38 40 41 51 52 54 56 0
8 10 12 14 15 17 19 21 29 32 33 35 43 46 48 49 0
1 2 4 5 23 24 25 26 44 45 47 48 51 52 54 55 0
8 10 13 14 15 17 20 21 29 32 34 35 36 39 41 42 0
1 2 3 7 30 31 32 35 37 38 39 42 44 45 46 49 0
8 11 12 13 15 18 19 20 22 25 26 27 50 54 55 56 0
1 2 3 6 30 31 32 34 37 38 39 41 51 52 53 56 0
8 11 12 14 15 18 19 21 22 25 26 28 43 47 48 49 0
1 2 3 5 30 31 32 33 44 45 46 48 51 52 53 55 0
8 11 13 14 15 18 20 21 22 25 27 28 36 40 41 42 0
1 2 3 4 37 38 39 40 44 45 46 47 51 52 53 54 0
8 12 13 14 15 19 20 21 22 26 27 28 29 33 34 35 0
5 6 7 12 13 14 19 20 21 26 27 28 33 34 35 0
36 37 38 39 40 43 44 45 46 47 50 51 52 53 54 0
4 6 7 11 13 14 18 20 21 25 27 28 40 41 42 0
29 30 31 32 33 43 44 45 46 48 50 51 52 53 55 0
4 5 7 11 12 14 18 19 21 25 26 28 47 48 49 0
29 30 31 32 34 36 37 38 39 41 50 51 52 53 56 0
4 5 6 11 12 13 18 19 20 25 26 27 54 55 56 0
29 30 31 32 35 36 37 38 39 42 43 44 45 46 49 0
3 6 7 10 13 14 17 20 21 32 34 35 39 41 42 0
22 23 24 25 26 43 44 45 47 48 50 51 52 54 55 0
3 5 7 10 12 14 17 19 21 32 33 35 46 48 49 0
22 23 24 25 27 36 37 38 40 41 50 51 52 54 56 0
3 5 6 10 12 13 17 19 20 32 33 34 53 55 56 0
22 23 24 25 28 36 37 38 40 42 43 44 45 47 49 0
3 4 7 10 11 14 17 18 21 39 40 42 46 47 49 0
22 23 24 26 27 29 30 31 33 34 50 51 52 55 56 0
3 4 6 10 11 13 17 18 20 39 40 41 53 54 56 0
22 23 24 26 28 29 30 31 33 35 43 44 45 48 49 0
3 4 5 10 11 12 17 18 19 46 47 48 53 54 55 0
22 23 24 27 28 29 30 31 34 35 36 37 38 41 42 0
2 6 7 9 13 14 24 27 28 31 34 35 38 41 42 0
15 16 17 18 19 43 44 46 47 48 50 51 53 54 55 0
2 5 7 9 12 14 24 26 28 31 33 35 45 48 49 0
15 16 17 18 20 36 37 39 40 41 50 51 53 54 56 0
2 5 6 9 12 13 24 26 27 31 33 34 52 55 56 0
15 16 17 18 21 36 37 39 40 42 43 44 46 47 49 0
2 4 7 9 11 14 24 25 28 38 40 42 45 47 49 0
15 16 17 19 20 29 30 32 33 34 50 51 53 55 56 0
2 4 6 9 11 13 24 25 27 38 40 41 52 54 56 0
15 16 17 19 21 29 30 32 33 35 43 44 46 48 49 0
2 4 5 9 11 12 24 25 26 45 47 48 52 54 55 0
15 16 17 20 21 29 30 32 34 35 36 37 39 41 42 0
2 3 7 9 10 14 31 32 35 38 39 42 45 46 49 0
15 16 18 19 20 22 23 25 26 27 50 51 54 55 56 0
2 3 6 9 10 13 31 32 34 38 39 41 52 53 56 0
15 16 18 19 21 22 23 25 26 28 43 44 47 48 49 0
2 3 5 9 10 12 31 32 33 45 46 48 52 53 55 0
15 16 18 20 21 22 23 25 27 28 36 37 40 41 42 0
2 3 4 9 10 11 38 39 40 45 46 47 52 53 54 0
15 16 19 20 21 22 23 26 27 28 29 30 33 34 35 0
1 6 7 16 20 21 23 27 28 30 34 35 37 41 42 0
8 9 10 11 12 43 45 46 47 48 50 52 53 54 55 0
1 5 7 16 19 21 23 26 28 30 33 35 44 48 49 0
8 9 10 11 13 36 38 39 40 41 50 52 53 54 56 0
1 5 6 16 19 20 23 26 27 30 33 34 51 55 56 0
8 9 10 11 14 36 38 39 40 42 43 45 46 47 49 0
1 4 7 16 18 21 23 25 28 37 40 42 44 47 49 0
8 9 10 12 13 29 31 32 33 34 50 52 53 55 56 0
1 4 6 16 18 20 23 25 27 37 40 41 51 54 56 0
8 9 10 12 14 29 31 32 33 35 43 45 46 48 49 0
1 4 5 16 18 19 23 25 26 44 47 48 51 54 55 0
8 9 10 13 14 29 31 32 34 35 36 38 39 41 42 0
1 3 7 16 17 21 30 32 35 37 39 42 44 46 49 0
8 9 11 12 13 22 24 25 26 27 50 52 54 55 56 0
1 3 6 16 17 20 30 32 34 37 39 41 51 53 56 0
8 9 11 12 14 22 24 25 26 28 43 45 47 48 49 0
1 3 5 16 17 19 30 32 33 44 46 48 51 53 55 0
8 9 11 13 14 22 24 25 27 28 36 38 40 41 42 0
1 3 4 16 17 18 37 39 40 44 46 47 51 53 54 0
8 9 12 13 14 22 24 26 27 28 29 31 33 34 35 0
1 2 7 23 24 28 30 31 35 37 38 42 44 45 49 0
8 10 11 12 13 15 17 18 19 20 50 53 54 55 56 0
1 2 6 23 24 27 30 31 34 37 38 41 51 52 56 0
8 10 11 12 14 15 17 18 19 21 43 46 47 48 49 0
1 2 5 23 24 26 30 31 33 44 45 48 51 52 55 0
8 10 11 13 14 15 17 18 20 21 36 39 40 41 42 0
1 2 4 23 24 25 37 38 40 44 45 47 51 52 54 0
8 10 12 13 14 15 17 19 20 21 29 32 33 34 35 0
1 2 3 30 31 32 37 38 39 44 45 46 51 52 53 0
8 11 12 13 14 15 18 19 20 21 22 25 26 27 28 0
6 7 13 14 20 21 27 28 34 35 41 42 0
43 44 45 46 47 48 50 51 52 53 54 55 0
5 7 12 14 19 21 26 28 33 35 48 49 0
36 37 38 39 40 41 50 51 52 53 54 56 0
5 6 12 13 19 20 26 27 33 34 55 56 0
36 37 38 39 40 42 43 44 45 46 47 49 0
4 7 11 14 18 21 25 28 40 42 47 49 0
29 30 31 32 33 34 50 51 52 53 55 56 0
4 6 11 13 18 20 25 27 40 41 54 56 0
29 30 31 32 33 35 43 44 45 46 48 49 0
4 5 11 12 18 19 25 26 47 48 54 55 0
29 30 31 32 34 35 36 37 38 39 41 42 0
3 7 10 14 17 21 32 35 39 42 46 49 0
22 23 24 25 26 27 50 51 52 54 55 56 0
3 6 10 13 17 20 32 34 39 41 53 56 0
22 23 24 25 26 28 43 44 45 47 48 49 0
3 5 10 12 17 19 32 33 46 48 53 55 0
22 23 24 25 27 28 36 37 38 40 41 42 0
3 4 10 11 17 18 39 40 46 47 53 54 0
22 23 24 26 27 28 29 30 31 33 34 35 0
2 7 9 14 24 28 31 35 38 42 45 49 0
15 16 17 18 19 20 50 51 53 54 55 56 0
2 6 9 13 24 27 31 34 38 41 52 56 0
15 16 17 18 19 21 43 44 46 47 48 49 0
2 5 9 12 24 26 31 33 45 48 52 55 0
15 16 17 18 20 21 36 37 39 40 41 42 0
2 4 9 11 24 25 38 40 45 47 52 54 0
15 16 17 19 20 21 29 30 32 33 34 35 0
2 3 9 10 31 32 38 39 45 46 52 53 0
15 16 18 19 20 21 22 23 25 26 27 28 0
1 7 16 21 23 28 30 35 37 42 44 49 0
8 9 10 11 12 13 50 52 53 54 55 56 0
1 6 16 20 23 27 30 34 37 41 51 56 0
8 9 10 11 12 14 43 45 46 47 48 49 0
1 5 16 19 23 26 30 33 44 48 51 55 0
8 9 10 11 13 14 36 38 39 40 41 42 0
1 4 16 18 23 25 37 40 44 47 51 54 0
8 9 10 12 13 14 29 31 32 33 34 35 0
1 3 16 17 30 32 37 39 44 46 51 53 0
8 9 11 12 13 14 22 24 25 26 27 28 0
1 2 23 24 30 31 37 38 44 45 51 52 0
8 10 11 12 13 14 15 17 18 19 20 21 0
7 14 21 28 35 42 49 0
50 51 52 53 54 55 56 0
6 13 20 27 34 41 56 0
43 44 45 46 47 48 49 0
5 12 19 26 33 48 55 0
36 37 38 39 40 41 42 0
4 11 18 25 40 47 54 0
29 30 31 32 33 34 35 0
3 10 17 32 39 46 53 0
22 23 24 25 26 27 28 0
2 9 24 31 38 45 52 0
15 16 17 18 19 20 21 0
1 16 23 30 37 44 51 0
8 9 10 11 12 13 14 0
-32 -34 -40 -42 -46 -49 -54 -56 0
-2 -5 -9 -13 -16 -18 -22 -26 -32 -33 -40 -41 -46 -48 -50 -51 0
-3 -7 -9 -14 -16 -19 -23 -25 -31 -33 -39 -40 0
-6 -7 -9 -14 -15 -19 -25 -27 -36 -41 -47 -48 -52 -56 0
-9 -10 -17 -18 -38 -40 0
-8 -13 -22 -25 -30 -34 -51 -54 0
-1 -3 -17 -19 -23 -24 -31 -33 0
-9 -13 -16 -17 -24 -25 -32 -33 -40 -41 -43 -48 -50 -51 0
-2 -7 -9 -10 -17 -21 -25 -26 -33 -34 -54 -56 0
-3 -6 -11 -14 -17 -19 -25 -27 -33 -35 0
-6 -7 -8 -11 -24 -27 -36 -41 -47 -49 -52 -56 0
-3 -7 -11 -14 -17 -19 -33 -35 -47 -49 0
-3 -7 -8 -14 -16 -19 -23 -24 -31 -32 -50 -55 0
-1 -5 -9 -10 -17 -21 -22 -24 -41 -42 -43 -48 -51 -56 0
-1 -3 -9 -11 -23 -25 -36 -39 -50 -52 0
-31 -35 -36 -40 -47 -49 -50 -52 0
-8 -13 -22 -26 -41 -42 -48 -49 0
-1 -5 -22 -24 -33 -34 -38 -42 -43 -49 -51 -56 0
-1 -6 -11 -14 -15 -16 -23 -27 -31 -35 -44 -47 -50 -52 0
-1 -7 -8 -14 -17 -19 -23 -24 -39 -40 -47 -48 -50 -52 0
-1 -7 -8 -13 -16 -21 -33 -34 -40 -41 -43 -48 -54 -56 0
-6 -7 -48 -49 -55 -56 0
-16 -18 -24 -26 -30 -33 -38 -40 0
-1 -2 -9 -13 -17 -21 -24 -26 -30 -33 -38 -41 -46 -49 0
-8 -10 -17 -18 -22 -24 -38 -40 0
-10 -13 -16 -21 -22 -25 -32 -33 -40 -41 -48 -49 -50 -51 0
-3 -7 -8 -11 -17 -19 -25 -27 -33 -35 -36 -41 0
-6 -7 -11 -14 -23 -24 -31 -32 -39 -41 -44 -47 0
-3 -6 -17 -19 -25 -27 -32 -33 -39 -40 0
-2 -5 -33 -34 -38 -40 -54 -56 0
-8 -13 -22 -25 -32 -33 -40 -41 -46 -48 0
-8 -9 -16 -18 -22 -24 -51 -54 0
-16 -19 -23 -24 -52 -55 0
-6 -7 -8 -14 -16 -19 -23 -24 -31 -33 -36 -41 0
-6 -7 -11 -14 -25 -27 -33 -35 -40 -41 -47 -49 -55 -56 0
-1 -5 -9 -13 -17 -18 -22 -25 -30 -33 -38 -40 -43 -46 -54 -56 0
-16 -19 -23 -24 -31 -33 0
-1 -3 -17 -19 -24 -25 -33 -35 -40 -41 -44 -49 -52 -56 0
-5 -7 -9 -13 -16 -21 -30 -33 -38 -41 0
-24 -27 -31 -33 -55 -56 0
-1 -5 -17 -18 -33 -34 -41 -42 -46 -49 -51 -54 0
-5 -7 -16 -18 -25 -26 -33 -34 -48 -49 -51 -56 0
-23 -27 -33 -35 -44 -49 -55 -56 0
-10 -13 -25 -26 -32 -33 -54 -56 0
-8 -10 -22 -24 -38 -40 -43 -46 -50 -54 0
-2 -7 -17 -21 -22 -25 -38 -42 -46 -49 -50 -54 0
-3 -7 -11 -14 -17 -19 -24 -27 -31 -33 -40 -41 0
-9 -13 -38 -40 -54 -56 0
-3 -7 -8 -14 -16 -19 -23 -24 -31 -33 -36 -39 0
-1 -5 -8 -13 -43 -48 -51 -56 0
-9 -13 -16 -18 -22 -24 -32 -33 -40 -41 -46 -48 -50 -51 0
-1 -5 -24 -26 -33 -34 -38 -42 -48 -49 -51 -56 0
-8 -14 -15 -17 -24 -25 -32 -33 -47 -49 -52 -55 0
-10 -13 -22 -25 -43 -46 -54 -56 0
-1 -3 -8 -11 -15 -17 -23 -25 0
-15 -19 -25 -27 -31 -35 -36 -41 -47 -49 -52 -55 0
-9 -10 -16 -18 -22 -24 -33 -34 -40 -41 -46 -48 -50 -51 0
-1 -3 -23 -24 -31 -32 0
-8 -10 -22 -24 -32 -34 -38 -40 -54 -56 0
-8 -9 -16 -17 -22 -24 -43 -46 -50 -51 0
-23 -27 -44 -48 -55 -56 0
-32 -35 -39 -40 -47 -49 0
-8 -13 -22 -25 -54 -56 0
-1 -2 -9 -13 -25 -26 -30 -33 -54 -56 0
-17 -18 -40 -42 -46 -49 0
-10 -13 -16 -21 -24 -26 -30 -33 -38 -41 -46 -49 0
-2 -7 -9 -13 -25 -26 -33 -34 -41 -42 -54 -56 0
-1 -3 -8 -11 -15 -16 -23 -25 -31 -35 -36 -39 -44 -49 -50 -52 0
-1 -2 -22 -24 -50 -51 0
-1 -2 -9 -13 -25 -26 -30 -32 -46 -48 -54 -56 0
-6 -7 -25 -27 -32 -35 -39 -40 0
-1 -6 -17 -19 -33 -35 -39 -41 -44 -49 0
-8 -13 -16 -21 -43 -49 -51 -56 0
-2 -5 -17 -18 -24 -25 -46 -48 0
-3 -7 -8 -14 -36 -39 0
-3 -6 -11 -14 -17 -19 -25 -27 -31 -35 -52 -55 0
-2 -5 -17 -21 -24 -25 -32 -33 -40 -42 0
-6 -7 -9 -14 -16 -19 -31 -32 -39 -41 -44 -48 0
-1 -3 -8 -9 -15 -16 -23 -24 -31 -35 -36 -39 -44 -49 -50 -52 0
-24 -25 -31 -32 -39 -40 0
-1 -5 -10 -13 -16 -21 -30 -33 -46 -49 -51 -56 0
-31 -32 -39 -40 -47 -48 -52 -55 0
-3 -7 -17 -19 -33 -35 0
-10 -13 -33 -34 -40 -41 -46 -48 -54 -56 0
-10 -13 -16 -18 -32 -33 -40 -41 -43 -48 -50 -51 0
-1 -3 -9 -14 -16 -17 -24 -25 -31 -35 -47 -48 -52 -55 0
-11 -14 -25 -27 -31 -35 -36 -41 -50 -52 0
-6 -7 -8 -14 -36 -41 0
-1 -2 -8 -10 -17 -18 -22 -24 -51 -54 0
-9 -13 -16 -21 -25 -26 -30 -33 -38 -42 -54 -56 0
-3 -6 -8 -11 -15 -17 -25 -27 0
-3 -6 -8 -11 -15 -17 -23 -27 -44 -47 0
-3 -7 -9 -14 -17 -19 -23 -27 -36 -41 -44 -48 -50 -52 0
-9 -13 -18 -21 -30 -34 -38 -42 -51 -54 0
-8 -9 -15 -16 -33 -35 -44 -49 -52 -55 0
-6 -7 -8 -9 -15 -16 -23 -24 -33 -35 -55 -56 0
-3 -7 -9 -11 -17 -19 -25 -27 -33 -35 -52 -56 0
-2 -5 -9 -13 -25 -26 -54 -56 0
-8 -14 -15 -17 -24 -25 -32 -35 -47 -48 -52 -55 0
-8 -13 -22 -24 -38 -41 0
-17 -19 -24 -25 -33 -35 -39 -41 -47 -49 -52 -56 0
-3 -7 -9 -11 -16 -19 -25 -27 -32 -35 -44 -48 -52 -56 0
-6 -7 -9 -14 -23 -25 -31 -33 -40 -41 -44 -48 0
-1 -5 -9 -13 -18 -21 -25 -26 -30 -33 -38 -40 -48 -49 -54 -56 0
-17 -21 -22 -25 -32 -33 -40 -41 -48 -49 -50 -56 0
-3 -7 -9 -14 -17 -19 -23 -27 -31 -33 -36 -41 -44 -48 -50 -55 0
-3 -7 -8 -14 -15 -17 -25 -27 -36 -41 -47 -48 -50 -55 0
-1 -6 -15 -16 -23 -27 -31 -35 -44 -49 -50 -52 0
-1 -2 -9 -10 -16 -17 0
-6 -7 -11 -14 -23 -24 -31 -33 -44 -47 -55 -56 0
-2 -7 -9 -13 -22 -26 -33 -34 -41 -42 -50 -56 0
-8 -9 -15 -16 -24 -27 -33 -35 -44 -49 -55 -56 0
-11 -14 -16 -19 -23 -25 -31 -35 -52 -55 0
-5 -7 -16 -21 -30 -33 0
-2 -5 -16 -17 -24 -26 -30 -32 0
-10 -13 -40 -42 -46 -49 -54 -56 0
-3 -7 -11 -14 -17 -19 -47 -48 0
-6 -7 -11 -14 -23 -24 -31 -33 -40 -41 -44 -48 0
-3 -6 -17 -19 -40 -41 -47 -48 0
-2 -7 -9 -10 -16 -21 -43 -46 -50 -51 0
-1 -5 -17 -18 -24 -26 -30 -33 -38 -40 -46 -48 0
-1 -3 -8 -11 -17 -19 -24 -25 -33 -35 -36 -41 -44 -49 -52 -56 0
-17 -18 -33 -34 -40 -41 -46 -48 0
-3 -7 -8 -14 -15 -17 -36 -40 -47 -48 -50 -55 0
-9 -11 -16 -19 -23 -25 -31 -33 0
-6 -7 -33 -35 -55 -56 0
-9 -10 -32 -34 -38 -40 -54 -56 0
-1 -7 -11 -14 -15 -17 -23 -24 -39 -40 -50 -52 0
-17 -19 -24 -27 -31 -33 -39 -41 0
-25 -26 -33 -34 -54 -56 0
-5 -7 -16 -21 -24 -26 -33 -34 -38 -42 -48 -49 -51 -56 0
-1 -3 -8 -11 -15 -17 -23 -25 -36 -40 -47 -48 -50 -55 0
-9 -11 -16 -19 -23 -25 -52 -55 0
-5 -7 -16 -21 -43 -48 -50 -51 0
-2 -7 -9 -13 -16 -21 -22 -25 -30 -33 -41 -42 -48 -49 -50 -54 0
-1 -3 -8 -11 -15 -16 -23 -25 -33 -35 -36 -39 -44 -49 -50 -55 0
-9 -10 -17 -21 -38 -42 0
-1 -5 -9 -10 -16 -17 -30 -34 -38 -42 -48 -49 -51 -56 0
-22 -24 -38 -40 -50 -54 0
-8 -13 -17 -21 -22 -25 -32 -33 -40 -41 -48 -49 0
-1 -2 -9 -10 -17 -18 -24 -26 -30 -33 -38 -40 0
-10 -13 -17 -18 -32 -33 -40 -41 -46 -48 0
-6 -7 -16 -17 -24 -27 -36 -39 -44 -49 -50 -52 0
-1 -3 -8 -11 -15 -17 -25 -27 -44 -48 -55 -56 0
-6 -7 -8 -14 -16 -19 -24 -27 -36 -41 -44 -48 -52 -56 0
-10 -13 -17 -18 -30 -33 -40 -41 -43 -48 -50 -51 0
-5 -7 -8 -13 -17 -18 -41 -42 -46 -48 -50 -54 0
-9 -10 -17 -18 -24 -25 0
-24 -27 -31 -33 -40 -41 -47 -48 0
-17 -19 -25 -27 -32 -33 -40 -41 0
-16 -17 -23 -24 -31 -32 0
-3 -7 -8 -14 -16 -19 -23 -25 -31 -33 -39 -40 -50 -52 0
-1 -3 -8 -9 -15 -16 -23 -24 -33 -35 -36 -39 -44 -49 -50 -55 0
-6 -7 -8 -11 -15 -16 -25 -27 -31 -32 -36 -39 -44 -49 -50 -52 0
-9 -10 -16 -17 -22 -24 -50 -51 0
-8 -13 -33 -34 -40 -41 -43 -48 -54 -56 0
-1 -5 -9 -13 -17 -21 -30 -33 -38 -41 -46 -49 0
-8 -13 -22 -25 -33 -34 -41 -42 -48 -49 -54 -56 0
-3 -7 -8 -14 -15 -17 -33 -35 -36 -40 -47 -49 -50 -55 0
-1 -6 -9 -11 -23 -25 -36 -41 -50 -52 0
-22 -24 -33 -34 -38 -41 -43 -48 0
-1 -5 -9 -13 -17 -21 -25 -26 -30 -33 -38 -42 -46 -48 -54 -56 0
-1 -2 -9 -13 -51 -56 0
-3 -7 -11 -14 -16 -19 -23 -24 -31 -33 -39 -40 0
-1 -3 -8 -11 -15 -17 -44 -47 0
-8 -11 -15 -17 -25 -27 -39 -40 -47 -48 -55 -56 0
-6 -7 -11 -14 -15 -19 -24 -27 -36 -41 -47 -48 -52 -56 0
-5 -7 -8 -13 -16 -21 -43 -48 -51 -56 0
-17 -19 -24 -27 -33 -35 -39 -40 -47 -49 -52 -56 0
-6 -7 -11 -14 -16 -19 -25 -27 -31 -32 -36 -39 -44 -48 -50 -52 0
-3 -7 -8 -14 -31 -32 -50 -52 0
-1 -3 -8 -11 -15 -17 -25 -27 -33 -35 -44 -49 -55 -56 0
-8 -10 -17 -21 -22 -24 -33 -34 -38 -41 -48 -49 0
-1 -2 -9 -13 -17 -21 -25 -26 -30 -33 -46 -49 -54 -56 0
-33 -34 -40 -41 -43 -48 -50 -54 0
-15 -16 -25 -27 -32 -35 -39 -40 -44 -49 -50 -56 0
-8 -9 -16 -18 -22 -24 -33 -34 -40 -41 -43 -48 -50 -51 0
-3 -7 -11 -14 -24 -25 -31 -32 0
-3 -7 -8 -11 -17 -19 -23 -27 -31 -35 -36 -40 -44 -48 -52 -56 0
-2 -7 -16 -21 -25 -26 -30 -33 -38 -40 0
-3 -7 -8 -14 -15 -17 0
-16 -18 -25 -26 -30 -33 0
-25 -26 -41 -42 -48 -49 -54 -56 0
-40 -41 -47 -48 -55 -56 0
-1 -7 -8 -14 -23 -27 -36 -41 0
-2 -7 -9 -10 -17 -18 -25 -26 -30 -34 -48 -49 -51 -56 0
-9 -13 -17 -21 -24 -25 -32 -33 -40 -41 -48 -49 0
-10 -13 -25 -26 -46 -48 -54 -56 0
-1 -3 -9 -14 -16 -17 -24 -25 -31 -33 -47 -49 -52 -55 0
-2 -7 -16 -21 -24 -26 -30 -33 0
-16 -19 -23 -25 -32 -33 -39 -40 0
-3 -7 -17 -19 -32 -35 -39 -40 -47 -48 0
-15 -19 -25 -27 -33 -35 -36 -41 -47 -49 0
-2 -5 -8 -9 -16 -18 -22 -24 -33 -34 -38 -41 -51 -54 0
-1 -5 -8 -13 -25 -26 -30 -33 -43 -48 -54 -56 0
-9 -13 -16 -21 -25 -26 -30 -32 -38 -42 -46 -48 -54 -56 0
-6 -7 -8 -14 -15 -17 -24 -25 -32 -33 -40 -41 -52 -55 0
-2 -7 -8 -13 -22 -24 -30 -34 -41 -42 -51 -56 0
-1 -5 -8 -13 -16 -18 -22 -25 -41 -42 -48 -49 0
-1 -7 -22 -24 -38 -42 -50 -51 0
-9 -13 -25 -26 -33 -34 -38 -41 -54 -56 0
-1 -3 -8 -11 -15 -17 -24 -25 -33 -35 -44 -49 -52 -55 0
-25 -27 -47 -48 -55 -56 0
-1 -5 -9 -13 -18 -21 -22 -25 -30 -33 -38 -40 -43 -49 -54 -56 0
-2 -7 -22 -25 -38 -42 -50 -54 0
-16 -21 -22 -25 -30 -33 -40 -41 -48 -49 -50 -56 0
-9 -13 -16 -21 -22 -25 -30 -34 -38 -42 -50 -54 0
-17 -19 -24 -25 -32 -33 -47 -48 -52 -55 0
-1 -5 -8 -9 -17 -21 -30 -33 -38 -41 -46 -49 -50 -56 0
-1 -5 -8 -10 -17 -21 -41 -42 -43 -48 -51 -56 0
-3 -7 -8 -14 -15 -19 -23 -24 -31 -32 -36 -40 -44 -47 -50 -55 0
-9 -14 -16 -17 -24 -27 -33 -35 -39 -40 -44 -47 -55 -56 0
-33 -34 -41 -42 -48 -49 0
-25 -27 -33 -35 -47 -49 -55 -56 0
-9 -13 -17 -21 -38 -41 -46 -49 0
-17 -19 -33 -35 -39 -40 -47 -49 0
-9 -13 -16 -17 -24 -25 -32 -34 -51 -54 0
-3 -7 -8 -14 -15 -17 -24 -25 -31 -32 -39 -40 0
-1 -5 -33 -34 -51 -56 0
-2 -7 -9 -13 -22 -26 -40 -42 -43 -48 -54 -56 0
-9 -10 -33 -34 -38 -41 -46 -48 0
-1 -3 -17 -19 -24 -27 -33 -35 -44 -49 -52 -56 0
-5 -7 -30 -34 -48 -49 -51 -56 0
-3 -7 -8 -14 -15 -17 -23 -24 -44 -48 -52 -55 0
-24 -27 -31 -35 -48 -49 -55 -56 0
-11 -14 -16 -19 -25 -27 -31 -35 -44 -48 -52 -56 0
-5 -7 -16 -21 -33 -34 -51 -56 0
-33 -35 -36 -40 -47 -49 -50 -55 0
-8 -11 -15 -17 -25 -27 -33 -35 -39 -40 -47 -49 -55 -56 0
-6 -7 -15 -19 -24 -27 -36 -41 -48 -49 -52 -56 0
-16 -21 -25 -26 -30 -33 -40 -42 0
-15 -19 -25 -27 -36 -41 -47 -48 0
-1 -7 -11 -14 -17 -19 -25 -27 -31 -32 -36 -41 -44 -48 -50 -52 0
-6 -7 -15 -19 -23 -27 -31 -35 -36 -41 -44 -48 -52 -56 0
-32 -33 -40 -41 -46 -48 -54 -56 0
-2 -5 -8 -9 -16 -21 -41 -42 -43 -48 -51 -56 0
-1 -7 -8 -10 -24 -26 -30 -33 -38 -41 -46 -49 -50 -56 0
-2 -7 -9 -13 -16 -21 -30 -33 -41 -42 -48 -49 0
-24 -27 -31 -32 -39 -41 0
-6 -7 -15 -16 -25 -27 -32 -35 -39 -40 -44 -48 -50 -55 0
-1 -7 -9 -10 -16 -18 -22 -25 -30 -32 -38 -42 -50 -51 0
-1 -7 -8 -9 -16 -19 -31 -35 -50 -55 0
-9 -13 -16 -21 -30 -33 -38 -41 -48 -49 0
-6 -7 -8 -14 -24 -27 -36 -41 -52 -56 0
-9 -13 -18 -21 -22 -25 -38 -40 -43 -49 -54 -56 0
-18 -21 -25 -26 -30 -32 -40 -42 -46 -48 -51 -54 0
-3 -6 -23 -27 -31 -32 -44 -48 -52 -55 0
-31 -33 -36 -40 -47 -48 -50 -52 0
-1 -7 -8 -14 -15 -16 0
-3 -7 -8 -14 -15 -17 -24 -27 -31 -32 -39 -41 0
-5 -7 -8 -9 -16 -21 -38 -41 -43 -48 -51 -56 0
-9 -13 -17 -21 -25 -26 -38 -42 -46 -48 -54 -56 0
-9 -13 -16 -18 -25 -26 -30 -32 -38 -40 -46 -48 -54 -56 0
-1 -7 -36 -41 -44 -49 -50 -56 0
-9 -13 -18 -21 -38 -42 -54 -56 0
-1 -5 -9 -13 -30 -33 -38 -41 0
